unsat
(define-fun f ((x (_ BitVec 64))) (_ BitVec 64) (ite (bvult x (bvor x #b0000000000000000000000000000000000000000000000000000000000000001)) (bvsub x (bvnot x)) (bvneg (bvadd x x))))
0.02user 0.00system 0:00.02elapsed 100%CPU (0avgtext+0avgdata 24856maxresident)k
0inputs+8outputs (0major+977minor)pagefaults 0swaps
